6067.38
68 3 0 0 0 25 142 142 142 57 3 0 142 68 25 3 122 68 122 142 3 142 68 3 142 68 3 142 142 3 68 142 0 25 142 0 0 142 68 25 0 142 68 0 3 57 25 25 25 3 0 3 57 3 57 3 3 25 68 25 142 0 0 142 142 57 0 142 0 3 25 25 142 0 57 0 25 68 57 68 142 0 142 25 68 3 142 0 3 25 142 122 0 0 3 0 3 25 3 0 25 25 142 25 68 142 29 25 25 68 0 3 122 25 3 142 142 142 25 25 142 25 3 0 25 142 68 25 3 142 142 25 3 3 57 25 3 68 25 142 57 142 25 142 57 68 3 3 25 25 3 142 25 68 142 3 142 68 142 25 142 68 25 142 0 3 68 25 3 68 0 122 3 0 142 0 0 25 3 25 29 3 142 68 142 3 0 142 142 68 0 0 142 3 0 3 142 122 142 3 
